Minimize
  obj: x0 + x1 + x2 + x3 + x4 + x5 + x6 + x7 + x8 + x9

Subject To
  c0: x2 + x5 + x8 + x9 = 42
  c1: x0 + x1 + x2 + x3 + x5 + x8 + x9 = 58
  c2: x0 + x2 + x4 + x5 + x9 = 37
  c3: x0 + x1 + x2 + x4 + x5 + x6 + x8 = 54
  c4: x3 + x5 + x7 + x8 + x9 = 53
  c5: x2 + x3 + x4 + x5 + x7 = 48
  c6: x0 + x2 + x5 + x8 + x9 = 42
  c7: x0 + x1 + x5 + x9 = 25
  c8: x0 + x2 + x3 + x7 + x8 + x9 = 61

Bounds
  x0 >= 0
  x1 >= 0
  x2 >= 0
  x3 >= 0
  x4 >= 0
  x5 >= 0
  x6 >= 0
  x7 >= 0
  x8 >= 0
  x9 >= 0

Generals
  x0 x1 x2 x3 x4 x5 x6 x7 x8 x9

End
